13 5
38 27 87 76 91 14 29 12 77 32 87 68 94
60  5 56  3 61 73 75 47 14 21 86  5 77
23 57 64  7  1 63 41 63 47 26 75 77 40
59 49 85 85  9 39 41 56 40 54 77 51 31
41 69 13 86 72  8 49 47 87 58 18 68 28